# Solution for model photosynthesis_srl_ilp
# Objective value = 1.3409314029359255e+01
Z_390_0_0 0
Z_390_0_1 0
Z_390_0_2 1
Z_390_0_3 0
Z_390_1_0 1
Z_390_1_1 0
Z_390_1_2 0
Z_390_1_3 0
Z_390_2_0 0
Z_390_2_1 0
Z_390_2_2 0
Z_390_2_3 1
Z_390_3_0 0
Z_390_3_1 1
Z_390_3_2 0
Z_390_3_3 0
Z_424_0_0 0
Z_424_0_1 0
Z_424_0_2 1
Z_424_0_3 0
Z_262_1_0 0
Z_262_1_1 0
Z_262_1_2 1
Z_262_1_3 0
Z_262_2_0 1
Z_262_2_1 0
Z_262_2_2 0
Z_262_2_3 0
Z_262_3_0 0
Z_262_3_1 0
Z_262_3_2 0
Z_262_3_3 1
Z_262_4_0 0
Z_262_4_1 0
Z_262_4_2 0
Z_262_4_3 0
Z_262_0_0 0
Z_262_0_1 1
Z_262_0_2 0
Z_262_0_3 0
Z_56_0_0 1
Z_56_0_1 0
Z_56_0_2 0
Z_56_0_3 0
Z_253_9_0 0
Z_253_9_1 0
Z_253_9_2 1
Z_253_9_3 0
Z_253_1_0 0
Z_253_1_1 1
Z_253_1_2 0
Z_253_1_3 0
Z_253_0_0 0
Z_253_0_1 0
Z_253_0_2 0
Z_253_0_3 1
Z_253_2_0 1
Z_253_2_1 0
Z_253_2_2 0
Z_253_2_3 0
Z_36_0_0 0
Z_36_0_1 1
Z_36_0_2 0
Z_36_0_3 0
Z_35_0_0 0
Z_35_0_1 1
Z_35_0_2 0
Z_35_0_3 0
Z_19_5_0 0
Z_19_5_1 0
Z_19_5_2 0
Z_19_5_3 0
Z_19_0_0 0
Z_19_0_1 0
Z_19_0_2 0
Z_19_0_3 0
Z_19_2_0 0
Z_19_2_1 0
Z_19_2_2 0
Z_19_2_3 0
Z_19_1_0 0
Z_19_1_1 0
Z_19_1_2 0
Z_19_1_3 0
Z_19_3_0 0
Z_19_3_1 1
Z_19_3_2 0
Z_19_3_3 0
Z_19_7_0 0
Z_19_7_1 0
Z_19_7_2 0
Z_19_7_3 1
Z_19_6_0 1
Z_19_6_1 0
Z_19_6_2 0
Z_19_6_3 0
Z_19_4_0 0
Z_19_4_1 0
Z_19_4_2 1
Z_19_4_3 0
Z_464_0_0 0
Z_464_0_1 0
Z_464_0_2 1
Z_464_0_3 0
Z_193_0_0 0
Z_193_0_1 1
Z_193_0_2 0
Z_193_0_3 0
Z_401_0_0 0
Z_401_0_1 0
Z_401_0_2 1
Z_401_0_3 0
Z_474_3_0 0
Z_474_3_1 1
Z_474_3_2 0
Z_474_3_3 0
Z_474_1_0 1
Z_474_1_1 0
Z_474_1_2 0
Z_474_1_3 0
Z_474_0_0 0
Z_474_0_1 0
Z_474_0_2 1
Z_474_0_3 0
Z_474_2_0 0
Z_474_2_1 0
Z_474_2_2 0
Z_474_2_3 1
Z_121_1_0 1
Z_121_1_1 0
Z_121_1_2 0
Z_121_1_3 0
Z_121_0_0 0
Z_121_0_1 0
Z_121_0_2 1
Z_121_0_3 0
